BAYES
256
2 2 2 2 2 2 2 2 2 2 2 2 2 2 2 2 2 2 2 2 2 2 2 2 2 2 2 2 2 2 2 2 2 2 2 2 2 2 2 2 2 2 2 2 2 2 2 2 2 2 2 2 2 2 2 2 2 2 2 2 2 2 2 2 2 2 2 2 2 2 2 2 2 2 2 2 2 2 2 2 2 2 2 2 2 2 2 2 2 2 2 2 2 2 2 2 2 2 2 2 2 2 2 2 2 2 2 2 2 2 2 2 2 2 2 2 2 2 2 2 2 2 2 2 2 2 2 2 2 2 2 2 2 2 2 2 2 2 2 2 2 2 2 2 2 2 2 2 2 2 2 2 2 2 2 2 2 2 2 2 2 2 2 2 2 2 2 2 2 2 2 2 2 2 2 2 2 2 2 2 2 2 2 2 2 2 2 2 2 2 2 2 2 2 2 2 2 2 2 2 2 2 2 2 2 2 2 2 2 2 2 2 2 2 2 2 2 2 2 2 2 2 2 2 2 2 2 2 2 2 2 2 2 2 2 2 2 2 2 2 2 2 2 2 2 2 2 2 2 2 2 2 2 2 2 2
256
3 1 16 0
3 2 17 1
3 3 18 2
3 4 19 3
3 5 20 4
3 6 21 5
3 7 22 6
3 8 23 7
3 9 24 8
3 10 25 9
3 11 26 10
3 12 27 11
3 13 28 12
3 14 29 13
3 15 30 14
2 16 15
3 17 32 16
3 18 33 17
3 19 34 18
3 20 35 19
3 21 36 20
3 22 37 21
3 23 38 22
3 24 39 23
3 25 40 24
3 26 41 25
3 27 42 26
3 28 43 27
3 29 44 28
3 30 45 29
3 31 46 30
2 32 31
3 33 48 32
3 34 49 33
3 35 50 34
3 36 51 35
3 37 52 36
3 38 53 37
3 39 54 38
3 40 55 39
3 41 56 40
3 42 57 41
3 43 58 42
3 44 59 43
3 45 60 44
3 46 61 45
3 47 62 46
2 48 47
3 49 64 48
3 50 65 49
3 51 66 50
3 52 67 51
3 53 68 52
3 54 69 53
3 55 70 54
3 56 71 55
3 57 72 56
3 58 73 57
3 59 74 58
3 60 75 59
3 61 76 60
3 62 77 61
3 63 78 62
2 64 63
3 65 80 64
3 66 81 65
3 67 82 66
3 68 83 67
3 69 84 68
3 70 85 69
3 71 86 70
3 72 87 71
3 73 88 72
3 74 89 73
3 75 90 74
3 76 91 75
3 77 92 76
3 78 93 77
3 79 94 78
2 80 79
3 81 96 80
3 82 97 81
3 83 98 82
3 84 99 83
3 85 100 84
3 86 101 85
3 87 102 86
3 88 103 87
3 89 104 88
3 90 105 89
3 91 106 90
3 92 107 91
3 93 108 92
3 94 109 93
3 95 110 94
2 96 95
3 97 112 96
3 98 113 97
3 99 114 98
3 100 115 99
3 101 116 100
3 102 117 101
3 103 118 102
3 104 119 103
3 105 120 104
3 106 121 105
3 107 122 106
3 108 123 107
3 109 124 108
3 110 125 109
3 111 126 110
2 112 111
3 113 128 112
3 114 129 113
3 115 130 114
3 116 131 115
3 117 132 116
3 118 133 117
3 119 134 118
3 120 135 119
3 121 136 120
3 122 137 121
3 123 138 122
3 124 139 123
3 125 140 124
3 126 141 125
3 127 142 126
2 128 127
3 129 144 128
3 130 145 129
3 131 146 130
3 132 147 131
3 133 148 132
3 134 149 133
3 135 150 134
3 136 151 135
3 137 152 136
3 138 153 137
3 139 154 138
3 140 155 139
3 141 156 140
3 142 157 141
3 143 158 142
2 144 143
3 145 160 144
3 146 161 145
3 147 162 146
3 148 163 147
3 149 164 148
3 150 165 149
3 151 166 150
3 152 167 151
3 153 168 152
3 154 169 153
3 155 170 154
3 156 171 155
3 157 172 156
3 158 173 157
3 159 174 158
2 160 159
3 161 176 160
3 162 177 161
3 163 178 162
3 164 179 163
3 165 180 164
3 166 181 165
3 167 182 166
3 168 183 167
3 169 184 168
3 170 185 169
3 171 186 170
3 172 187 171
3 173 188 172
3 174 189 173
3 175 190 174
2 176 175
3 177 192 176
3 178 193 177
3 179 194 178
3 180 195 179
3 181 196 180
3 182 197 181
3 183 198 182
3 184 199 183
3 185 200 184
3 186 201 185
3 187 202 186
3 188 203 187
3 189 204 188
3 190 205 189
3 191 206 190
2 192 191
3 193 208 192
3 194 209 193
3 195 210 194
3 196 211 195
3 197 212 196
3 198 213 197
3 199 214 198
3 200 215 199
3 201 216 200
3 202 217 201
3 203 218 202
3 204 219 203
3 205 220 204
3 206 221 205
3 207 222 206
2 208 207
3 209 224 208
3 210 225 209
3 211 226 210
3 212 227 211
3 213 228 212
3 214 229 213
3 215 230 214
3 216 231 215
3 217 232 216
3 218 233 217
3 219 234 218
3 220 235 219
3 221 236 220
3 222 237 221
3 223 238 222
2 224 223
3 225 240 224
3 226 241 225
3 227 242 226
3 228 243 227
3 229 244 228
3 230 245 229
3 231 246 230
3 232 247 231
3 233 248 232
3 234 249 233
3 235 250 234
3 236 251 235
3 237 252 236
3 238 253 237
3 239 254 238
2 240 239
2 256 240
2 257 241
2 258 242
2 259 243
2 260 244
2 261 245
2 262 246
2 263 247
2 264 248
2 265 249
2 266 250
2 267 251
2 268 252
2 269 253
2 270 254
1  255
8
0 1 0 1 1 0 1 0
8
0 1 1 0 1 0 0 1
8
0 1 1 0 0 1 0 1
8
1 0 0 1 0 1 1 0
8
1 0 1 0 0 1 0 1
8
1 0 0 1 1 0 0 1
8
1 0 0 1 0 1 1 0
8
1 0 0 1 1 0 0 1
8
1 0 0 1 0 1 0 1
8
0 1 0 1 1 0 0 1
8
1 0 0 1 1 0 0 1
8
0 1 1 0 1 0 1 0
8
0 1 1 0 1 0 1 0
8
0 1 1 0 1 0 0 1
8
0 1 1 0 0 1 1 0
4
0 1 0 1
8
1 0 1 0 0 1 1 0
8
0 1 0 1 0 1 1 0
8
1 0 0 1 1 0 1 0
8
0.6022726585633922 0.3977273414366078 0.4968779187719559 0.503122081228044 0.9127337685939396 0.0872662314060604 0.1189864899193005 0.8810135100806995
8
0 1 1 0 0 1 0 1
8
1 0 0 1 0 1 0 1
8
1 0 0 1 0 1 1 0
8
0 1 1 0 0 1 0 1
8
1 0 0 1 1 0 1 0
8
0 1 1 0 1 0 1 0
8
1 0 0 1 0 1 1 0
8
0 1 0 1 0 1 0 1
8
0 1 0 1 0 1 1 0
8
1 0 1 0 1 0 1 0
8
1 0 0 1 1 0 1 0
4
0 1 0 1
8
0.8568447601894534 0.1431552398105466 0.9016597234780808 0.09834027652191919 0.4618054266525574 0.5381945733474426 0.4635099094268773 0.5364900905731228
8
0 1 1 0 0 1 1 0
8
0 1 1 0 1 0 0 1
8
0 1 1 0 1 0 0 1
8
0 1 0 1 1 0 1 0
8
1 0 1 0 0 1 0 1
8
0 1 0 1 0 1 1 0
8
0 1 1 0 1 0 0 1
8
0 1 1 0 1 0 0 1
8
1 0 0 1 0 1 1 0
8
0 1 1 0 0 1 1 0
8
0 1 0 1 0 1 1 0
8
1 0 0 1 1 0 0 1
8
0 1 1 0 1 0 1 0
8
0.04456245337408125 0.9554375466259187 0.748388040231312 0.25161195976868805 0.419643288077764 0.5803567119222359 0.47185243768645035 0.5281475623135496
4
1 0 0 1
8
0 1 1 0 0 1 0 1
8
0 1 1 0 1 0 0 1
8
1 0 1 0 1 0 0 1
8
0 1 0 1 0 1 0 1
8
0 1 0 1 0 1 1 0
8
1 0 1 0 1 0 0 1
8
1 0 0 1 1 0 0 1
8
1 0 0 1 1 0 0 1
8
0 1 1 0 1 0 0 1
8
0 1 0 1 0 1 0 1
8
1 0 1 0 1 0 0 1
8
0 1 1 0 0 1 0 1
8
0 1 1 0 0 1 1 0
8
0 1 0 1 0 1 0 1
8
0.21492461425490716 0.7850753857450928 0.7482657452319161 0.25173425476808386 0.36342859270865574 0.6365714072913442 0.4321329500051208 0.5678670499948791
4
0.3370902227589305 0.6629097772410695 0.45518244562045 0.54481755437955
8
1 0 0 1 1 0 0 1
8
0 1 1 0 0 1 1 0
8
1 0 1 0 1 0 1 0
8
0 1 0 1 0 1 1 0
8
1 0 1 0 0 1 1 0
8
1 0 1 0 0 1 0 1
8
0 1 0 1 1 0 0 1
8
0 1 1 0 1 0 0 1
8
0.020992302469427453 0.9790076975305726 0.49041257696708346 0.5095874230329166 0.1213080753790779 0.878691924620922 0.2685748795123125 0.7314251204876875
8
1 0 1 0 0 1 0 1
8
0 1 0 1 1 0 0 1
8
0 1 1 0 1 0 1 0
8
1 0 1 0 1 0 1 0
8
0 1 0 1 1 0 0 1
8
1 0 0 1 0 1 0 1
4
1 0 1 0
8
1 0 1 0 0 1 0 1
8
1 0 0 1 1 0 0 1
8
0 1 1 0 1 0 0 1
8
1 0 0 1 0 1 0 1
8
1 0 1 0 1 0 1 0
8
0 1 1 0 1 0 0 1
8
0 1 1 0 1 0 1 0
8
0.11787793684407738 0.8821220631559226 0.09378859816903501 0.9062114018309649 0.8978839491148188 0.1021160508851812 0.1824422353620522 0.8175577646379479
8
1 0 0 1 1 0 0 1
8
1 0 0 1 1 0 0 1
8
1 0 0 1 0 1 1 0
8
1 0 0 1 1 0 0 1
8
0 1 0 1 1 0 0 1
8
1 0 0 1 0 1 1 0
8
0 1 1 0 0 1 0 1
4
1 0 1 0
8
1 0 1 0 0 1 0 1
8
1 0 1 0 1 0 0 1
8
1 0 0 1 1 0 0 1
8
0 1 1 0 1 0 1 0
8
1 0 1 0 0 1 0 1
8
1 0 1 0 0 1 1 0
8
0 1 0 1 0 1 0 1
8
0 1 0 1 1 0 0 1
8
0 1 0 1 0 1 0 1
8
0 1 0 1 1 0 1 0
8
0.6047875953083462 0.3952124046916538 0.9774761750829518 0.022523824917048144 0.7004611190187509 0.29953888098124914 0.6870640220085332 0.3129359779914668
8
0 1 1 0 0 1 1 0
8
1 0 0 1 1 0 1 0
8
1 0 0 1 0 1 0 1
8
0 1 0 1 1 0 0 1
4
0 1 0 1
8
0 1 0 1 1 0 1 0
8
1 0 1 0 0 1 1 0
8
0 1 0 1 0 1 0 1
8
1 0 1 0 0 1 1 0
8
1 0 0 1 0 1 1 0
8
0 1 1 0 1 0 0 1
8
0 1 0 1 0 1 1 0
8
0 1 0 1 1 0 0 1
8
1 0 0 1 1 0 1 0
8
1 0 0 1 1 0 0 1
8
1 0 0 1 1 0 1 0
8
0.1513737677389672 0.8486262322610327 0.7571929913290865 0.24280700867091357 0.3719727425720703 0.6280272574279298 0.6861281850157795 0.3138718149842204
8
1 0 1 0 0 1 0 1
8
1 0 1 0 0 1 0 1
8
1 0 0 1 1 0 1 0
4
1 0 0 1
8
1 0 1 0 0 1 0 1
8
1 0 1 0 0 1 1 0
8
1 0 1 0 1 0 0 1
8
0 1 1 0 1 0 0 1
8
1 0 0 1 0 1 1 0
8
0 1 1 0 0 1 1 0
8
0 1 0 1 0 1 1 0
8
1 0 0 1 1 0 1 0
8
0.8279681801635553 0.1720318198364447 0.02447561808970792 0.9755243819102921 0.6165623837359714 0.38343761626402856 0.34223995098291154 0.6577600490170886
8
1 0 1 0 1 0 1 0
8
1 0 1 0 1 0 1 0
8
0 1 0 1 0 1 1 0
8
0 1 0 1 0 1 0 1
8
0 1 0 1 0 1 0 1
8
0 1 1 0 1 0 1 0
4
0 1 0 1
8
0 1 0 1 0 1 1 0
8
1 0 0 1 0 1 0 1
8
1 0 1 0 1 0 0 1
8
1 0 1 0 0 1 1 0
8
0.28814645932901384 0.711853540670986 0.8025497671074634 0.19745023289253674 0.7038117270626172 0.2961882729373828 0.737892786887933 0.2621072131120671
8
1 0 0 1 0 1 0 1
8
0.6028057050747847 0.3971942949252153 0.5224672897938317 0.4775327102061682 0.906611437453193 0.09338856254680701 0.38481493318519777 0.6151850668148022
8
1 0 0 1 0 1 1 0
8
0 1 1 0 1 0 1 0
8
1 0 0 1 0 1 0 1
8
0 1 1 0 0 1 0 1
8
1 0 0 1 0 1 1 0
8
0.6477354336265333 0.35226456637346665 0.12296504562946277 0.8770349543705372 0.5512865635803508 0.44871343641964917 0.4170047917179192 0.5829952082820808
8
0.30563508944771123 0.6943649105522888 0.2843505190836134 0.7156494809163865 0.14684992445693817 0.8531500755430618 0.5042765317777363 0.4957234682222637
8
0 1 1 0 1 0 1 0
4
1 0 1 0
8
0 1 1 0 1 0 1 0
8
1 0 0 1 0 1 0 1
8
0 1 1 0 1 0 1 0
8
1 0 0 1 1 0 1 0
8
0.49355646791014046 0.5064435320898595 0.3576259182565599 0.64237408174344 0.9087102142114767 0.09128978578852336 0.3250963034238413 0.6749036965761587
8
1 0 0 1 0 1 1 0
8
1 0 1 0 1 0 0 1
8
0 1 0 1 0 1 1 0
8
0 1 1 0 0 1 0 1
8
0 1 0 1 0 1 0 1
8
0 1 0 1 1 0 1 0
8
0 1 0 1 0 1 1 0
8
0.11273317985323714 0.8872668201467628 0.679491558706071 0.3205084412939289 0.8941007299276856 0.10589927007231438 0.12679080998683298 0.873209190013167
8
1 0 0 1 1 0 1 0
8
0 1 1 0 0 1 1 0
4
0 1 1 0
8
0 1 1 0 0 1 0 1
8
0.792472796682232 0.20752720331776794 0.6052769133521508 0.39472308664784916 0.9474409160144881 0.052559083985511915 0.9099218379448596 0.0900781620551404
8
0 1 1 0 1 0 1 0
8
1 0 0 1 0 1 1 0
8
1 0 0 1 1 0 1 0
8
1 0 1 0 1 0 0 1
8
0.991695898031634 0.008304101968365951 0.4700373311600538 0.5299626688399462 0.5869964367248116 0.4130035632751884 0.1758434212351207 0.8241565787648792
8
1 0 0 1 0 1 1 0
8
1 0 0 1 1 0 1 0
8
1 0 1 0 0 1 1 0
8
1 0 1 0 1 0 1 0
8
0 1 1 0 1 0 0 1
8
0 1 0 1 0 1 1 0
8
1 0 1 0 1 0 1 0
8
0 1 0 1 1 0 1 0
4
0 1 0 1
8
0 1 0 1 1 0 0 1
8
0 1 1 0 0 1 0 1
8
1 0 0 1 0 1 1 0
8
0 1 1 0 0 1 1 0
8
1 0 1 0 1 0 1 0
8
0 1 0 1 1 0 0 1
8
0 1 0 1 0 1 1 0
8
1 0 1 0 1 0 0 1
8
1 0 0 1 0 1 0 1
8
1 0 1 0 1 0 1 0
8
1 0 0 1 1 0 0 1
8
0 1 1 0 0 1 1 0
8
0 1 1 0 0 1 0 1
8
0.1343377517705088 0.8656622482294913 0.6997063892024318 0.3002936107975683 0.4227949152920196 0.5772050847079804 0.5139386240720638 0.4860613759279362
8
1 0 0 1 1 0 0 1
4
1 0 0 1
8
1 0 1 0 0 1 0 1
8
0 1 0 1 0 1 1 0
8
1 0 1 0 0 1 1 0
8
1 0 1 0 1 0 1 0
8
0.8485050780943504 0.1514949219056496 0.18926613094701475 0.8107338690529854 0.1601926997958078 0.8398073002041923 0.8020644873469248 0.19793551265307516
8
1 0 0 1 0 1 1 0
8
1 0 0 1 0 1 0 1
8
0 1 0 1 0 1 0 1
8
0.9876873468950954 0.012312653104904644 0.2708715692840599 0.72912843071594 0.3838748955367924 0.6161251044632077 0.5115944347463488 0.4884055652536513
8
1 0 1 0 0 1 0 1
8
1 0 1 0 0 1 1 0
8
0.6610461815571176 0.33895381844288236 0.4314292709304371 0.568570729069563 0.22424739101207897 0.775752608987921 0.6632587289304855 0.3367412710695144
8
0.5997521259434769 0.400247874056523 0.3133664278359092 0.6866335721640908 0.2224775131285111 0.7775224868714888 0.8139235420959309 0.18607645790406915
8
0 1 0 1 1 0 0 1
8
0 1 1 0 1 0 1 0
4
0.4853861108890996 0.5146138891109004 0.279908640316772 0.720091359683228
8
1 0 1 0 1 0 0 1
8
1 0 1 0 0 1 1 0
8
0 1 0 1 0 1 0 1
8
1 0 1 0 0 1 0 1
8
1 0 1 0 0 1 1 0
8
0 1 0 1 0 1 0 1
8
1 0 1 0 1 0 0 1
8
1 0 1 0 0 1 1 0
8
1 0 1 0 1 0 1 0
8
0 1 0 1 1 0 0 1
8
1 0 0 1 0 1 0 1
8
1 0 1 0 1 0 1 0
8
1 0 0 1 0 1 1 0
8
1 0 0 1 1 0 0 1
8
0 1 1 0 0 1 0 1
4
1 0 1 0
4
0 1 1 0
4
1 0 1 0
4
1 0 0 1
4
0 1 0 1
4
1 0 1 0
4
0 1 1 0
4
1 0 0 1
4
0 1 1 0
4
1 0 1 0
4
0 1 0 1
4
0 1 0 1
4
1 0 0 1
4
1 0 1 0
4
0 1 0 1
4
0.2598123813523706 0.7401876186476295 0.44880346954270917 0.5511965304572909
2
0.31120664641813534 0.6887933535818647
